750
125 125
1 87 631
2 87 690
3 87 800
4 87 57
5 87 955
6 87 611
7 87 723
8 87 561
9 87 960
10 87 42
11 87 39
12 86 833
13 86 616
14 86 447
15 86 348
16 86 415
17 86 769
18 86 816
19 86 797
20 86 916
21 86 268
22 86 984
23 86 276
24 86 680
25 86 993
26 86 913
27 86 874
28 86 533
29 86 428
30 86 50
31 85 348
32 85 854
33 85 474
34 85 672
35 85 391
36 85 684
37 85 443
38 85 286
39 85 47
40 84 562
41 84 559
42 84 399
43 84 650
44 84 381
45 84 609
46 83 376
47 83 234
48 83 872
49 83 225
50 83 272
51 83 567
52 83 627
53 83 241
54 83 397
55 82 517
56 82 165
57 82 317
58 82 701
59 82 37
60 82 432
61 82 115
62 82 715
63 82 349
64 82 735
65 81 568
66 81 925
67 81 745
68 81 370
69 81 707
70 81 503
71 81 593
72 80 328
73 80 732
74 80 463
75 80 442
76 80 712
77 80 493
78 80 787
79 80 306
80 80 20
81 80 450
82 80 398
83 80 329
84 80 308
85 80 409
86 80 628
87 80 484
88 80 573
89 80 857
90 79 550
91 79 1000
92 79 15
93 79 762
94 79 318
95 79 180
96 78 763
97 78 5
98 78 351
99 78 753
100 78 360
101 78 196
102 78 797
103 78 59
104 78 948
105 77 446
106 77 116
107 77 260
108 77 179
109 77 253
110 77 698
111 76 802
112 76 515
113 76 44
114 76 251
115 76 604
116 76 9
117 76 920
118 76 930
119 76 503
120 76 657
121 76 388
122 76 859
123 76 415
124 76 852
125 75 257
126 75 463
127 75 944
128 75 729
129 75 975
130 75 269
131 75 781
132 75 549
133 75 920
134 75 520
135 75 427
136 74 948
137 74 486
138 74 821
139 74 445
140 74 588
141 74 505
142 74 459
143 74 652
144 74 766
145 74 747
146 74 513
147 74 246
148 74 677
149 74 391
150 73 231
151 73 921
152 73 670
153 73 352
154 73 180
155 73 265
156 73 388
157 73 40
158 73 478
159 73 730
160 72 789
161 72 206
162 72 46
163 72 582
164 72 16
165 72 556
166 72 101
167 72 745
168 72 927
169 72 455
170 71 821
171 71 181
172 71 228
173 71 903
174 71 876
175 71 381
176 71 0
177 71 106
178 71 942
179 70 307
180 70 456
181 70 275
182 70 555
183 70 191
184 70 596
185 70 577
186 70 577
187 70 504
188 70 542
189 70 257
190 69 1000
191 69 931
192 69 439
193 69 767
194 69 770
195 69 510
196 69 44
197 69 721
198 69 134
199 69 217
200 69 895
201 69 228
202 69 451
203 69 856
204 68 395
205 68 247
206 68 284
207 68 341
208 68 80
209 68 475
210 68 2
211 68 102
212 68 382
213 67 878
214 67 155
215 67 327
216 67 72
217 67 849
218 67 254
219 66 912
220 66 697
221 66 543
222 66 513
223 66 17
224 66 407
225 66 575
226 66 485
227 66 220
228 66 16
229 66 786
230 66 644
231 66 499
232 65 543
233 65 450
234 65 567
235 65 789
236 64 325
237 64 178
238 63 30
239 63 390
240 63 507
241 63 133
242 63 603
243 63 565
244 63 881
245 63 82
246 63 108
247 63 34
248 63 764
249 62 502
250 62 601
251 62 872
252 62 747
253 62 409
254 62 694
255 62 755
256 62 769
257 62 4
258 62 71
259 62 633
260 61 215
261 61 181
262 61 205
263 61 557
264 61 316
265 61 899
266 61 401
267 61 852
268 61 630
269 60 967
270 60 685
271 60 226
272 60 104
273 60 172
274 60 126
275 60 490
276 60 710
277 60 383
278 59 684
279 59 706
280 59 558
281 59 715
282 59 452
283 59 502
284 59 452
285 59 57
286 59 342
287 59 257
288 59 456
289 59 229
290 59 933
291 59 955
292 59 473
293 59 54
294 59 145
295 58 66
296 58 730
297 58 725
298 58 929
299 58 952
300 57 688
301 57 890
302 57 4
303 57 360
304 57 753
305 57 366
306 56 372
307 56 395
308 56 485
309 56 85
310 56 944
311 56 456
312 56 614
313 56 692
314 56 975
315 55 974
316 55 616
317 55 137
318 55 867
319 55 78
320 55 289
321 55 271
322 55 500
323 55 162
324 55 164
325 54 798
326 54 770
327 54 499
328 54 425
329 54 466
330 54 245
331 54 805
332 53 936
333 53 754
334 53 713
335 53 369
336 53 308
337 53 106
338 53 252
339 53 630
340 53 340
341 53 316
342 53 916
343 53 69
344 52 483
345 52 28
346 52 805
347 52 793
348 52 349
349 52 10
350 52 659
351 52 404
352 51 911
353 51 353
354 51 610
355 51 575
356 51 784
357 51 507
358 51 72
359 51 336
360 51 485
361 51 177
362 51 220
363 51 810
364 50 656
365 50 252
366 50 761
367 50 374
368 50 473
369 50 288
370 50 228
371 50 639
372 50 343
373 50 630
374 50 102
375 50 280
376 50 260
377 49 621
378 49 829
379 49 40
380 49 929
381 49 534
382 49 246
383 49 102
384 49 17
385 49 387
386 49 611
387 49 270
388 49 455
389 49 875
390 49 317
391 48 816
392 48 804
393 48 819
394 48 426
395 48 494
396 48 409
397 48 577
398 48 392
399 48 436
400 48 571
401 48 996
402 47 521
403 47 759
404 47 948
405 47 166
406 47 337
407 47 789
408 47 785
409 47 302
410 46 646
411 46 233
412 46 820
413 46 332
414 46 302
415 46 51
416 46 222
417 46 449
418 45 522
419 45 511
420 45 253
421 45 721
422 45 712
423 45 734
424 45 207
425 45 972
426 45 21
427 45 293
428 45 336
429 44 651
430 44 842
431 44 142
432 44 748
433 44 847
434 44 536
435 44 423
436 43 32
437 43 892
438 43 226
439 43 717
440 43 173
441 43 570
442 42 683
443 42 144
444 42 753
445 42 867
446 42 881
447 42 766
448 42 420
449 42 628
450 42 411
451 42 614
452 42 5
453 42 528
454 42 604
455 42 699
456 42 80
457 42 635
458 41 408
459 41 160
460 41 302
461 41 876
462 41 445
463 41 392
464 41 174
465 41 787
466 41 355
467 41 404
468 40 489
469 40 104
470 40 404
471 40 121
472 39 875
473 39 548
474 39 965
475 39 277
476 39 980
477 39 679
478 39 638
479 39 966
480 38 41
481 38 244
482 38 266
483 38 443
484 38 892
485 38 936
486 38 253
487 38 824
488 38 441
489 38 831
490 38 403
491 37 951
492 37 449
493 37 189
494 37 14
495 37 661
496 37 946
497 37 855
498 37 943
499 37 54
500 36 982
501 36 969
502 36 185
503 36 170
504 36 969
505 36 173
506 36 984
507 36 536
508 36 730
509 36 271
510 36 508
511 35 70
512 35 565
513 35 930
514 35 154
515 35 556
516 35 535
517 35 667
518 35 798
519 35 812
520 35 298
521 35 145
522 35 651
523 35 259
524 35 243
525 35 71
526 34 67
527 34 843
528 34 748
529 34 2
530 34 59
531 34 269
532 33 556
533 33 51
534 33 569
535 33 268
536 33 471
537 33 223
538 33 803
539 33 866
540 33 778
541 32 257
542 32 787
543 32 27
544 32 954
545 32 165
546 32 852
547 32 416
548 32 559
549 32 603
550 32 489
551 32 355
552 32 392
553 32 360
554 32 799
555 31 124
556 31 702
557 31 358
558 31 860
559 31 526
560 31 467
561 31 964
562 30 612
563 30 125
564 30 130
565 30 44
566 30 875
567 30 190
568 30 423
569 30 211
570 30 4
571 30 625
572 30 743
573 30 566
574 30 218
575 29 754
576 29 751
577 29 116
578 29 873
579 29 589
580 29 937
581 29 659
582 29 783
583 29 769
584 29 919
585 29 360
586 29 270
587 29 72
588 28 719
589 28 384
590 28 508
591 28 455
592 28 665
593 28 337
594 28 745
595 28 678
596 28 949
597 28 361
598 28 263
599 28 695
600 28 520
601 27 636
602 27 510
603 27 70
604 27 949
605 27 574
606 27 538
607 27 254
608 27 21
609 27 918
610 27 766
611 27 972
612 27 698
613 27 627
614 27 887
615 27 75
616 26 574
617 26 961
618 26 78
619 26 273
620 26 83
621 26 148
622 25 565
623 25 612
624 25 906
625 25 182
626 25 172
627 25 147
628 25 270
629 25 913
630 25 888
631 25 72
632 25 558
633 25 289
634 24 687
635 24 104
636 24 308
637 23 64
638 23 981
639 23 394
640 23 532
641 23 922
642 23 391
643 23 83
644 23 249
645 23 600
646 22 977
647 22 644
648 22 374
649 22 66
650 22 61
651 22 99
652 22 484
653 22 275
654 22 158
655 22 137
656 22 51
657 21 678
658 21 635
659 21 867
660 21 306
661 21 821
662 21 968
663 21 174
664 21 370
665 21 577
666 21 86
667 21 131
668 21 929
669 21 514
670 21 689
671 20 602
672 20 221
673 20 154
674 20 993
675 20 888
676 20 153
677 20 829
678 20 898
679 20 708
680 20 163
681 19 48
682 19 976
683 19 438
684 19 131
685 19 126
686 19 375
687 19 302
688 19 821
689 18 994
690 18 561
691 18 741
692 18 210
693 18 902
694 18 772
695 18 2
696 18 34
697 17 551
698 17 253
699 17 346
700 17 188
701 17 626
702 17 671
703 17 26
704 17 956
705 17 72
706 17 468
707 16 406
708 16 926
709 16 58
710 16 45
711 16 358
712 15 988
713 15 39
714 15 911
715 15 40
716 15 135
717 14 361
718 14 694
719 14 640
720 14 457
721 14 405
722 14 642
723 14 27
724 14 138
725 14 307
726 13 957
727 13 160
728 13 915
729 13 236
730 13 437
731 13 245
732 13 773
733 13 623
734 13 669
735 13 118
736 13 230
737 13 549
738 12 166
739 12 347
740 12 307
741 12 597
742 12 132
743 12 338
744 12 335
745 12 827
746 12 589
747 12 724
748 12 74
749 12 23
750 12 600
